(declare-const a Real)
(declare-const b Real)
(declare-const c Real)
(assert (= (+ a b c) 3))
(assert (> a 0))
(assert (> b 0))
(assert (> c 0))
(assert (not (<= (+ (/ -3 4) (* a (pow (+ (pow (+ (* (/ 1 3) a) (* (/ 1 3) b) (* (/ 1 3) c)) 2) (* 2 (pow a 2)) (* (/ 2 3) a (pow 3 (/ 1 2)) (pow c (/ 1 2)) (pow (+ (* (/ 1 3) a) (* (/ 1 3) b)) (/ 1 2)))) -1) (+ (* (/ 1 3) a) (* (/ 1 3) b) (* (/ 1 3) c))) (* b (pow (+ (pow (+ (* (/ 1 3) a) (* (/ 1 3) b) (* (/ 1 3) c)) 2) (* 2 (pow b 2)) (* b (+ (* (/ 1 3) a) (* (/ 1 3) b) (* (/ 1 3) c)))) -1) (+ (* (/ 1 3) a) (* (/ 1 3) b) (* (/ 1 3) c))) (* c (pow (+ (pow (+ (* (/ 1 3) a) (* (/ 1 3) b) (* (/ 1 3) c)) 2) (* 2 (pow c 2)) (* c (+ (* (/ 1 3) a) (* (/ 1 3) b) (* (/ 1 3) c)))) -1) (+ (* (/ 1 3) a) (* (/ 1 3) b) (* (/ 1 3) c)))) 0)))
(check-sat)
(get-model)
(exit)